10 6 15 4 18 14 11 17 8 12 5 9 19 2 7 0 1 13 16 3  
10 6 15 4 18 14 11 17 8 12 5 9 19 16 7 0 1 13 2 3  
10 6 15 4 18 14 11 17 8 12 5 9 19 3 1 0 13 16 7 2  
10 6 15 4 18 14 11 17 8 12 5 9 19 7 1 0 2 13 16 3  
10 6 15 4 18 14 11 17 8 12 5 9 19 2 7 0 1 13 16 3  
10 6 15 4 18 14 11 17 8 12 5 9 19 2 7 0 1 13 16 3  
10 6 15 4 18 14 11 17 8 12 5 9 19 16 0 2 3 1 7 13  
4 10 18 15 14 6 7 8 11 17 12 9 19 13 16 5 0 1 2 3  
10 6 15 4 18 14 11 17 8 12 5 9 19 1 0 7 2 13 16 3  
4 10 6 18 15 14 11 17 8 12 5 9 19 2 7 1 0 13 16 3  
10 6 15 4 18 14 11 17 8 12 5 9 19 2 16 0 7 3 1 13  
4 10 6 18 15 14 11 17 8 12 5 9 19 16 7 2 13 0 1 3  
10 6 15 4 18 14 11 17 8 12 5 9 19 2 7 0 1 13 16 3  
4 10 6 18 15 17 8 14 11 12 5 9 19 7 2 0 1 13 16 3  
10 6 15 4 18 14 11 17 8 12 5 9 19 2 16 0 13 7 3 1  
10 6 15 4 18 14 11 17 8 12 5 9 19 2 7 1 0 13 16 3  
4 10 6 18 15 17 8 14 11 12 0 9 19 16 5 2 3 7 1 13  
4 10 6 18 15 17 8 14 11 12 5 9 19 16 0 2 3 1 7 13  
4 10 6 18 15 17 8 14 11 12 5 9 19 16 0 2 3 1 7 13  
10 6 15 4 11 18 14 17 8 12 5 9 19 3 1 0 13 16 7 2  
4 10 6 18 15 17 8 14 11 16 5 9 19 12 0 2 3 1 7 13  
10 6 15 4 18 14 11 17 8 12 5 9 19 7 2 0 1 13 16 3  
4 10 6 18 15 17 8 14 11 12 5 9 19 7 0 2 3 13 16 1  
4 10 6 18 15 14 11 17 8 12 5 9 19 16 7 2 13 0 1 3  
4 10 6 18 15 14 5 7 0 11 12 9 13 2 1 17 19 16 3 8  
4 10 6 18 15 14 11 7 12 0 5 9 19 17 1 2 13 16 3 8  
10 6 15 4 18 14 11 17 8 12 5 9 19 2 13 7 16 0 1 3  
4 10 6 18 15 14 5 8 11 17 12 9 19 7 2 1 0 13 16 3  
4 10 6 18 15 14 11 17 8 12 5 9 19 7 1 0 2 13 16 3  
10 6 15 4 18 14 11 17 8 12 5 9 19 2 7 0 1 13 16 3  
10 6 15 4 18 14 11 17 8 12 5 9 19 1 0 7 2 13 16 3  
10 6 15 4 18 14 11 17 8 12 5 9 19 2 13 7 16 0 1 3  
10 6 15 4 18 14 11 5 17 12 7 9 19 1 0 2 13 16 3 8  
10 6 15 4 18 14 11 17 8 12 5 9 19 2 7 1 0 13 16 3  
10 6 15 4 18 14 11 17 8 12 5 9 19 2 0 1 7 13 16 3  
10 6 15 4 18 14 11 17 8 12 5 9 19 7 1 0 2 13 16 3  
10 6 15 4 18 14 11 17 8 12 5 9 19 2 13 0 1 16 7 3  
4 10 6 18 15 17 8 14 11 12 0 9 19 16 5 2 3 7 13 1  
10 6 15 4 18 14 11 17 8 12 5 9 19 3 1 0 13 16 7 2  
4 10 6 15 18 17 8 14 11 12 5 9 19 0 1 7 2 13 16 3  
10 6 15 4 18 14 11 17 8 12 5 9 19 3 1 0 13 16 7 2  
4 10 6 18 15 17 8 14 11 12 5 9 19 16 0 2 7 13 3 1  
10 6 15 4 18 14 11 17 8 12 5 9 19 16 7 0 1 13 2 3  
10 6 15 4 18 14 11 17 8 12 5 9 19 3 1 0 13 16 7 2  
10 6 15 4 18 14 11 17 8 12 5 9 19 2 7 0 1 13 16 3  
10 6 15 4 18 14 11 17 8 12 5 9 19 7 2 0 1 13 16 3  
10 6 15 4 18 14 11 17 8 12 5 9 19 2 13 0 1 16 7 3  
10 6 15 4 18 14 11 17 8 12 5 9 19 2 0 1 7 13 16 3  
4 10 6 18 15 14 5 8 11 17 12 9 19 7 2 1 0 13 16 3  
10 6 15 4 18 14 11 17 8 12 5 9 19 2 0 13 16 1 7 3  
10 6 15 4 18 14 11 17 8 12 5 9 19 2 1 0 13 16 7 3  
4 10 6 18 15 14 7 11 5 0 12 9 19 17 1 2 13 16 3 8  
4 10 6 18 15 14 5 8 11 17 12 9 19 7 1 0 2 13 16 3  
4 10 6 18 15 14 11 17 8 12 5 9 19 2 7 13 16 0 1 3  
10 6 15 4 18 14 11 17 8 12 5 9 19 1 0 2 13 7 16 3  
